* #variable= 22 #constraint= 61
min: 1 x16 +1 x9 +0 x1; 
+1 x1 = 0;
+1 x6 = 1;
+1 x9 = 1;
+1 x12 =  0;
+1 x13 =  0;
+1 x4 =  0;
+1 x5 =  0;
-1 x1 +1 x9 >= 0;
-1 x1 -1 x12 >= -1;
-1 x1 -1 x13 >= -1;
-1 x10 -1 x11 >= -1;
-1 x11 -1 x10 >= -1;
+1 x16 -1 x9 >= 0;
-1 x16 +1 x9 >= 0;
-1 x17 -1 x18 >= -1;
-1 x18 -1 x17 >= -1;
-1 x6 +1 x9 >= 0;
-1 x7 -1 x8 >= -1;
-1 x8 -1 x7 >= -1;
+1 x9 -1 x16 >= 0;
-1 x9 +1 x16 >= 0;
-1 x12 -1 x4 >= -1;
-1 x13 -1 x5 >= -1;
 +2 x14  -1 x4  -1 x12  >= 0;
-1 x14 -1 x19 >= -1;
 +2 x15  -1 x5  -1 x13  >= 0;
-1 x15 -1 x20 >= -1;
-1 x19 -1 x14 >= -1;
-1 x20 -1 x15 >= -1;
 +2 x21  -1 x14  -1 x19  >= 0;
 +2 x22  -1 x15  -1 x20  >= 0;
-1 x4 -1 x12 >= -1;
-1 x5 -1 x13 >= -1;
 -1 x1  +1 x10  -1 x2  >= -1;
 -1 x1  -1 x10  +1 x2  >= -1;
 -1 x1  +1 x11  -1 x3  >= -1;
 -1 x1  -1 x11  +1 x3  >= -1;
 -1 x1  +1 x2  -1 x10  >= -1;
 -1 x1  -1 x2  +1 x10  >= -1;
 -1 x1  +1 x3  -1 x11  >= -1;
 -1 x1  -1 x3  +1 x11  >= -1;
 -1 x16  +1 x17  -1 x10  >= -1;
 -1 x16  -1 x17  +1 x10  >= -1;
 -1 x16  +1 x18  -1 x11  >= -1;
 -1 x16  -1 x18  +1 x11  >= -1;
 -1 x6  +1 x10  -1 x7  >= -1;
 -1 x6  -1 x10  +1 x7  >= -1;
 -1 x6  +1 x11  -1 x8  >= -1;
 -1 x6  -1 x11  +1 x8  >= -1;
 -1 x6  +1 x7  -1 x10  >= -1;
 -1 x6  -1 x7  +1 x10  >= -1;
 -1 x6  +1 x8  -1 x11  >= -1;
 -1 x6  -1 x8  +1 x11  >= -1;
 -1 x9  +1 x10  -1 x17  >= -1;
 -1 x9  -1 x10  +1 x17  >= -1;
 -1 x9  +1 x11  -1 x18  >= -1;
 -1 x9  -1 x11  +1 x18  >= -1;
 +1 x14  +1 x19  -1 x21  >= 0;
 +1 x15  +1 x20  -1 x22  >= 0;
 +1 x4  +1 x12  -1 x14  >= 0;
 +1 x5  +1 x13  -1 x15  >= 0;
